c This is an instance of the exact track of PACE 2020 Challenge, see https://pacechallenge.org/2020/ 
c TYPE: infrastracture 
c ORIGIN: Open street maps 
c DESCRIPTION: Sypniewo (Poland): a road network downloaded from open street maps using osmnx Python package 
p tdp 92 131
1 14
1 6
1 7
2 16
2 4
3 14
3 42
3 86
4 5
6 7
6 8
7 11
9 81
9 13
9 82
10 92
10 15
11 91
11 15
12 13
12 15
12 77
13 80
14 88
16 30
16 19
17 24
17 22
17 18
18 26
18 20
19 21
19 32
20 23
20 29
21 22
21 25
22 24
23 27
23 31
24 26
25 33
25 28
26 29
27 34
27 36
28 37
28 32
29 31
29 33
30 42
30 35
31 34
32 43
33 46
33 37
34 39
35 36
35 38
36 39
37 52
37 43
38 47
38 44
39 40
40 47
40 46
41 45
42 49
43 45
43 58
44 50
44 48
45 64
45 51
46 52
46 56
47 50
48 55
48 49
49 53
50 55
50 56
52 58
52 60
53 59
53 57
54 67
55 59
55 71
56 63
57 62
57 66
58 64
58 65
59 62
59 69
60 65
60 63
61 70
62 66
62 68
63 72
64 67
64 74
65 73
66 89
66 68
67 70
67 75
68 69
69 71
70 76
71 72
72 73
73 74
74 75
75 76
77 78
77 79
79 80
79 82
80 81
81 82
82 83
84 85
85 86
86 87
89 90
89 91
90 91
